50 120
0 7
0 10
0 21
0 33
1 38
2 16
2 19
2 21
2 22
2 25
2 37
2 49
3 11
3 49
4 5
4 18
4 35
4 40
4 44
5 17
5 32
5 34
5 41
5 44
5 47
6 12
6 14
6 45
7 9
7 10
7 41
7 48
8 20
8 33
8 41
8 42
9 16
9 21
10 12
10 24
10 41
10 44
10 48
11 30
11 46
12 21
12 33
12 45
13 19
13 22
14 29
14 38
14 41
15 24
15 29
15 36
15 37
15 43
15 46
16 19
16 24
17 40
17 48
18 36
18 43
19 21
19 32
19 43
19 49
20 23
20 31
21 28
21 38
21 42
22 26
23 28
23 47
24 25
24 26
24 27
24 45
24 46
25 26
25 49
26 36
26 39
26 42
26 45
27 30
27 34
27 48
27 49
28 35
29 30
29 48
30 34
31 33
31 35
31 37
32 38
32 45
32 46
32 49
33 37
33 42
34 39
34 42
36 47
37 42
37 44
38 45
39 43
39 45
40 47
40 49
42 45
43 49
44 45
45 46
47 49
